(set-info :source |printed by MathSAT|)
(declare-fun |!{$(in_main#0)<N>}| () Int)
(declare-fun |!{$(in_main#0)<N>}.next| () Int)
(declare-fun |!{$(in_main#0)<i>}| () Int)
(declare-fun |!{$(in_main#0)<i>}.next| () Int)
(declare-fun |!{$(in_main#0)<k>}| () Int)
(declare-fun |!{$(in_main#0)<k>}.next| () Int)
(declare-fun |!{$(in_main#0)<s>}| () Int)
(declare-fun |!{$(in_main#0)<s>}.next| () Int)
(declare-fun |!{$(in_main#0)<x>}| () Int)
(declare-fun |!{$(in_main#0)<x>}.next| () Int)
(declare-fun |!{$(in_main#0)<y>}| () Int)
(declare-fun |!{$(in_main#0)<y>}.next| () Int)
(declare-fun |!{$(in_main#0)<a.1>}| () (Array Int Int))
(declare-fun |!{$(in_main#0)<a.1>}.next| () (Array Int Int))
(declare-fun |!{$(in_main#0)<$(in___VERIFIER_nondet_int#0)<h#<__VERIFIER_nondet_int.return>>>}| () Int)
(declare-fun |!{$(in_main#0)<$(in___VERIFIER_nondet_int#1)<h#<__VERIFIER_nondet_int.return>>>}| () Int)
(declare-fun !pc () Int)
(declare-fun !pc.next () Int)
(declare-fun |%{$(in_main#0)<k>}#1| () Int)
(declare-fun |%{$(in_main#0)<s>}#1| () Int)
(declare-fun |%{$(in_main#0)<x>}#1| () Int)
(declare-fun |%{$(in_main#0)<y>}#1| () Int)
(declare-fun |%{$(in_main#0)<a.1>}#1| () (Array Int Int))
(declare-fun |%{$(in_main#0)<s>}#2| () Int)
(declare-fun |%{$(in_main#0)<a.1>}#3| () (Array Int Int))
(define-fun .def_44 () Int (! !pc :next !pc.next))
(define-fun .def_47 () Bool (! (= .def_44 2) :init true))
(define-fun .def_341 () Bool (= .def_44 34))
(define-fun .def_229 () Bool (= !pc.next 54))
(define-fun .def_344 () Bool (and .def_229 .def_341))
(define-fun .def_8 () Int (! |!{$(in_main#0)<N>}| :next |!{$(in_main#0)<N>}.next|))
(define-fun .def_81 () Bool (= .def_8 |!{$(in_main#0)<N>}.next|))
(define-fun .def_62 () Bool (= |!{$(in_main#0)<i>}.next| 0))
(define-fun .def_334 () Bool (and .def_62 .def_81))
(define-fun .def_12 () Int (! |!{$(in_main#0)<k>}| :next |!{$(in_main#0)<k>}.next|))
(define-fun .def_84 () Bool (= .def_12 |!{$(in_main#0)<k>}.next|))
(define-fun .def_335 () Bool (and .def_84 .def_334))
(define-fun .def_14 () Int (! |!{$(in_main#0)<s>}| :next |!{$(in_main#0)<s>}.next|))
(define-fun .def_86 () Bool (= .def_14 |!{$(in_main#0)<s>}.next|))
(define-fun .def_336 () Bool (and .def_86 .def_335))
(define-fun .def_16 () Int (! |!{$(in_main#0)<x>}| :next |!{$(in_main#0)<x>}.next|))
(define-fun .def_88 () Bool (= .def_16 |!{$(in_main#0)<x>}.next|))
(define-fun .def_337 () Bool (and .def_88 .def_336))
(define-fun .def_18 () Int (! |!{$(in_main#0)<y>}| :next |!{$(in_main#0)<y>}.next|))
(define-fun .def_103 () Bool (= .def_18 |!{$(in_main#0)<y>}.next|))
(define-fun .def_338 () Bool (and .def_103 .def_337))
(define-fun .def_20 () (Array Int Int) (! |!{$(in_main#0)<a.1>}| :next |!{$(in_main#0)<a.1>}.next|))
(define-fun .def_95 () Bool (= .def_20 |!{$(in_main#0)<a.1>}.next|))
(define-fun .def_339 () Bool (and .def_95 .def_338))
(define-fun .def_10 () Int (! |!{$(in_main#0)<i>}| :next |!{$(in_main#0)<i>}.next|))
(define-fun .def_164 () Bool (<= .def_8 .def_10))
(define-fun .def_340 () Bool (and .def_164 .def_339))
(define-fun .def_345 () Bool (and .def_340 .def_344))
(define-fun .def_75 () Bool (= !pc.next 34))
(define-fun .def_342 () Bool (and .def_75 .def_341))
(define-fun .def_330 () (Array Int Int) (store .def_20 .def_10 |!{$(in_main#0)<$(in___VERIFIER_nondet_int#1)<h#<__VERIFIER_nondet_int.return>>>}|))
(define-fun .def_331 () Bool (= |!{$(in_main#0)<a.1>}.next| .def_330))
(define-fun .def_209 () Int (* (- 1) |!{$(in_main#0)<i>}.next|))
(define-fun .def_210 () Int (+ .def_10 .def_209))
(define-fun .def_211 () Bool (= .def_210 (- 1)))
(define-fun .def_212 () Bool (and .def_81 .def_211))
(define-fun .def_213 () Bool (and .def_84 .def_212))
(define-fun .def_214 () Bool (and .def_86 .def_213))
(define-fun .def_215 () Bool (and .def_88 .def_214))
(define-fun .def_216 () Bool (and .def_103 .def_215))
(define-fun .def_332 () Bool (and .def_216 .def_331))
(define-fun .def_165 () Bool (not .def_164))
(define-fun .def_333 () Bool (and .def_165 .def_332))
(define-fun .def_343 () Bool (and .def_333 .def_342))
(define-fun .def_346 () Bool (or .def_343 .def_345))
(define-fun .def_323 () Bool (= .def_44 63))
(define-fun .def_270 () Bool (= !pc.next 97))
(define-fun .def_326 () Bool (and .def_270 .def_323))
(define-fun .def_319 () Bool (= |!{$(in_main#0)<a.1>}.next| |%{$(in_main#0)<a.1>}#3|))
(define-fun .def_177 () Bool (= |!{$(in_main#0)<x>}.next| 0))
(define-fun .def_82 () Bool (= .def_10 |!{$(in_main#0)<i>}.next|))
(define-fun .def_83 () Bool (and .def_81 .def_82))
(define-fun .def_85 () Bool (and .def_83 .def_84))
(define-fun .def_87 () Bool (and .def_85 .def_86))
(define-fun .def_178 () Bool (and .def_87 .def_177))
(define-fun .def_179 () Bool (and .def_103 .def_178))
(define-fun .def_320 () Bool (and .def_179 .def_319))
(define-fun .def_280 () Int (select .def_20 .def_14))
(define-fun .def_192 () Int (select .def_20 .def_10))
(define-fun .def_296 () (Array Int Int) (store .def_20 .def_14 .def_192))
(define-fun .def_297 () (Array Int Int) (store .def_296 .def_10 .def_280))
(define-fun .def_303 () Bool (= .def_297 |%{$(in_main#0)<a.1>}#3|))
(define-fun .def_294 () Bool (= .def_10 .def_14))
(define-fun .def_295 () Bool (not .def_294))
(define-fun .def_305 () Bool (and .def_295 .def_303))
(define-fun .def_302 () Bool (= .def_20 |%{$(in_main#0)<a.1>}#3|))
(define-fun .def_304 () Bool (and .def_294 .def_302))
(define-fun .def_306 () Bool (or .def_304 .def_305))
(define-fun .def_321 () Bool (and .def_306 .def_320))
(define-fun .def_277 () Bool (<= .def_8 .def_12))
(define-fun .def_322 () Bool (and .def_277 .def_321))
(define-fun .def_327 () Bool (and .def_322 .def_326))
(define-fun .def_185 () Bool (= !pc.next 63))
(define-fun .def_324 () Bool (and .def_185 .def_323))
(define-fun .def_312 () Bool (= |!{$(in_main#0)<s>}.next| |%{$(in_main#0)<s>}#2|))
(define-fun .def_308 () Int (* (- 1) |!{$(in_main#0)<k>}.next|))
(define-fun .def_309 () Int (+ .def_12 .def_308))
(define-fun .def_310 () Bool (= .def_309 (- 1)))
(define-fun .def_311 () Bool (and .def_83 .def_310))
(define-fun .def_313 () Bool (and .def_311 .def_312))
(define-fun .def_314 () Bool (and .def_88 .def_313))
(define-fun .def_315 () Bool (and .def_103 .def_314))
(define-fun .def_316 () Bool (and .def_95 .def_315))
(define-fun .def_288 () Bool (= .def_12 |%{$(in_main#0)<s>}#2|))
(define-fun .def_279 () Int (select .def_20 .def_12))
(define-fun .def_281 () Bool (<= .def_279 .def_280))
(define-fun .def_282 () Bool (not .def_281))
(define-fun .def_290 () Bool (and .def_282 .def_288))
(define-fun .def_287 () Bool (= .def_14 |%{$(in_main#0)<s>}#2|))
(define-fun .def_289 () Bool (and .def_281 .def_287))
(define-fun .def_291 () Bool (or .def_289 .def_290))
(define-fun .def_317 () Bool (and .def_291 .def_316))
(define-fun .def_278 () Bool (not .def_277))
(define-fun .def_318 () Bool (and .def_278 .def_317))
(define-fun .def_325 () Bool (and .def_318 .def_324))
(define-fun .def_328 () Bool (or .def_325 .def_327))
(define-fun .def_262 () Bool (= .def_44 106))
(define-fun .def_271 () Bool (and .def_262 .def_270))
(define-fun .def_255 () Bool (<= .def_10 .def_18))
(define-fun .def_142 () Int (* (- 1) |!{$(in_main#0)<x>}.next|))
(define-fun .def_143 () Int (+ .def_16 .def_142))
(define-fun .def_144 () Bool (= .def_143 (- 1)))
(define-fun .def_145 () Bool (and .def_87 .def_144))
(define-fun .def_146 () Bool (and .def_103 .def_145))
(define-fun .def_147 () Bool (and .def_95 .def_146))
(define-fun .def_261 () Bool (and .def_147 .def_255))
(define-fun .def_272 () Bool (and .def_261 .def_271))
(define-fun .def_248 () Bool (= !pc.next 106))
(define-fun .def_267 () Bool (and .def_248 .def_262))
(define-fun .def_256 () Bool (not .def_255))
(define-fun .def_91 () Int (* (- 1) |!{$(in_main#0)<y>}.next|))
(define-fun .def_136 () Int (+ .def_18 .def_91))
(define-fun .def_137 () Bool (= .def_136 (- 1)))
(define-fun .def_89 () Bool (and .def_87 .def_88))
(define-fun .def_138 () Bool (and .def_89 .def_137))
(define-fun .def_139 () Bool (and .def_95 .def_138))
(define-fun .def_120 () Int (select .def_20 .def_18))
(define-fun .def_119 () Int (select .def_20 .def_16))
(define-fun .def_121 () Bool (<= .def_119 .def_120))
(define-fun .def_122 () Int (ite .def_121 1 0))
(define-fun .def_123 () Bool (= .def_122 0))
(define-fun .def_124 () Bool (not .def_123))
(define-fun .def_140 () Bool (and .def_124 .def_139))
(define-fun .def_260 () Bool (and .def_140 .def_256))
(define-fun .def_268 () Bool (and .def_260 .def_267))
(define-fun .def_264 () Bool (= !pc.next 126))
(define-fun .def_265 () Bool (and .def_262 .def_264))
(define-fun .def_128 () Bool (and .def_81 .def_123))
(define-fun .def_129 () Bool (and .def_82 .def_128))
(define-fun .def_130 () Bool (and .def_84 .def_129))
(define-fun .def_131 () Bool (and .def_86 .def_130))
(define-fun .def_132 () Bool (and .def_88 .def_131))
(define-fun .def_133 () Bool (and .def_103 .def_132))
(define-fun .def_134 () Bool (and .def_95 .def_133))
(define-fun .def_259 () Bool (and .def_134 .def_256))
(define-fun .def_266 () Bool (and .def_259 .def_265))
(define-fun .def_269 () Bool (or .def_266 .def_268))
(define-fun .def_273 () Bool (or .def_269 .def_272))
(define-fun .def_246 () Bool (= .def_44 97))
(define-fun .def_225 () Bool (= !pc.next 142))
(define-fun .def_251 () Bool (and .def_225 .def_246))
(define-fun .def_239 () Int (+ .def_10 .def_142))
(define-fun .def_240 () Bool (= .def_239 (- 1)))
(define-fun .def_241 () Bool (and .def_87 .def_240))
(define-fun .def_242 () Bool (and .def_103 .def_241))
(define-fun .def_243 () Bool (and .def_95 .def_242))
(define-fun .def_236 () Bool (<= .def_10 .def_16))
(define-fun .def_244 () Bool (and .def_236 .def_243))
(define-fun .def_252 () Bool (and .def_244 .def_251))
(define-fun .def_249 () Bool (and .def_246 .def_248))
(define-fun .def_237 () Bool (not .def_236))
(define-fun .def_92 () Int (+ .def_16 .def_91))
(define-fun .def_93 () Bool (= .def_92 (- 1)))
(define-fun .def_94 () Bool (and .def_89 .def_93))
(define-fun .def_96 () Bool (and .def_94 .def_95))
(define-fun .def_238 () Bool (and .def_96 .def_237))
(define-fun .def_250 () Bool (and .def_238 .def_249))
(define-fun .def_253 () Bool (or .def_250 .def_252))
(define-fun .def_220 () Bool (= .def_44 142))
(define-fun .def_230 () Bool (and .def_220 .def_229))
(define-fun .def_217 () Bool (and .def_95 .def_216))
(define-fun .def_78 () Bool (<= .def_8 .def_16))
(define-fun .def_218 () Bool (and .def_78 .def_217))
(define-fun .def_231 () Bool (and .def_218 .def_230))
(define-fun .def_226 () Bool (and .def_220 .def_225))
(define-fun .def_193 () Bool (<= .def_192 .def_119))
(define-fun .def_194 () Int (ite .def_193 1 0))
(define-fun .def_195 () Bool (= .def_194 0))
(define-fun .def_196 () Bool (not .def_195))
(define-fun .def_207 () Bool (and .def_147 .def_196))
(define-fun .def_79 () Bool (not .def_78))
(define-fun .def_208 () Bool (and .def_79 .def_207))
(define-fun .def_227 () Bool (and .def_208 .def_226))
(define-fun .def_222 () Bool (= !pc.next 162))
(define-fun .def_223 () Bool (and .def_220 .def_222))
(define-fun .def_199 () Bool (and .def_81 .def_195))
(define-fun .def_200 () Bool (and .def_82 .def_199))
(define-fun .def_201 () Bool (and .def_84 .def_200))
(define-fun .def_202 () Bool (and .def_86 .def_201))
(define-fun .def_203 () Bool (and .def_88 .def_202))
(define-fun .def_204 () Bool (and .def_103 .def_203))
(define-fun .def_205 () Bool (and .def_95 .def_204))
(define-fun .def_206 () Bool (and .def_79 .def_205))
(define-fun .def_224 () Bool (and .def_206 .def_223))
(define-fun .def_228 () Bool (or .def_224 .def_227))
(define-fun .def_232 () Bool (or .def_228 .def_231))
(define-fun .def_183 () Bool (= .def_44 54))
(define-fun .def_157 () Bool (= !pc.next 177))
(define-fun .def_188 () Bool (and .def_157 .def_183))
(define-fun .def_180 () Bool (and .def_95 .def_179))
(define-fun .def_181 () Bool (and .def_164 .def_180))
(define-fun .def_189 () Bool (and .def_181 .def_188))
(define-fun .def_186 () Bool (and .def_183 .def_185))
(define-fun .def_169 () Int (* (- 1) |!{$(in_main#0)<s>}.next|))
(define-fun .def_170 () Int (+ .def_10 .def_169))
(define-fun .def_171 () Bool (= .def_170 (- 1)))
(define-fun .def_167 () Bool (= .def_10 |!{$(in_main#0)<k>}.next|))
(define-fun .def_168 () Bool (and .def_83 .def_167))
(define-fun .def_172 () Bool (and .def_168 .def_171))
(define-fun .def_173 () Bool (and .def_88 .def_172))
(define-fun .def_174 () Bool (and .def_103 .def_173))
(define-fun .def_175 () Bool (and .def_95 .def_174))
(define-fun .def_176 () Bool (and .def_165 .def_175))
(define-fun .def_187 () Bool (and .def_176 .def_186))
(define-fun .def_190 () Bool (or .def_187 .def_189))
(define-fun .def_149 () Bool (= .def_44 186))
(define-fun .def_158 () Bool (and .def_149 .def_157))
(define-fun .def_117 () Bool (<= .def_8 .def_18))
(define-fun .def_148 () Bool (and .def_117 .def_147))
(define-fun .def_159 () Bool (and .def_148 .def_158))
(define-fun .def_109 () Bool (= !pc.next 186))
(define-fun .def_154 () Bool (and .def_109 .def_149))
(define-fun .def_118 () Bool (not .def_117))
(define-fun .def_141 () Bool (and .def_118 .def_140))
(define-fun .def_155 () Bool (and .def_141 .def_154))
(define-fun .def_151 () Bool (= !pc.next 206))
(define-fun .def_152 () Bool (and .def_149 .def_151))
(define-fun .def_135 () Bool (and .def_118 .def_134))
(define-fun .def_153 () Bool (and .def_135 .def_152))
(define-fun .def_156 () Bool (or .def_153 .def_155))
(define-fun .def_160 () Bool (or .def_156 .def_159))
(define-fun .def_112 () Bool (= !pc.next 0))
(define-fun .def_107 () Bool (= .def_44 177))
(define-fun .def_113 () Bool (and .def_107 .def_112))
(define-fun .def_98 () Bool (and .def_78 .def_81))
(define-fun .def_99 () Bool (and .def_82 .def_98))
(define-fun .def_100 () Bool (and .def_84 .def_99))
(define-fun .def_101 () Bool (and .def_86 .def_100))
(define-fun .def_102 () Bool (and .def_88 .def_101))
(define-fun .def_104 () Bool (and .def_102 .def_103))
(define-fun .def_105 () Bool (and .def_95 .def_104))
(define-fun .def_114 () Bool (and .def_105 .def_113))
(define-fun .def_110 () Bool (and .def_107 .def_109))
(define-fun .def_97 () Bool (and .def_79 .def_96))
(define-fun .def_111 () Bool (and .def_97 .def_110))
(define-fun .def_115 () Bool (or .def_111 .def_114))
(define-fun .def_76 () Bool (and .def_47 .def_75))
(define-fun .def_72 () Bool (= |!{$(in_main#0)<a.1>}.next| |%{$(in_main#0)<a.1>}#1|))
(define-fun .def_70 () Bool (= |!{$(in_main#0)<y>}.next| |%{$(in_main#0)<y>}#1|))
(define-fun .def_68 () Bool (= |!{$(in_main#0)<x>}.next| |%{$(in_main#0)<x>}#1|))
(define-fun .def_66 () Bool (= |!{$(in_main#0)<s>}.next| |%{$(in_main#0)<s>}#1|))
(define-fun .def_64 () Bool (= |!{$(in_main#0)<k>}.next| |%{$(in_main#0)<k>}#1|))
(define-fun .def_61 () Bool (= |!{$(in_main#0)<N>}.next| |!{$(in_main#0)<$(in___VERIFIER_nondet_int#0)<h#<__VERIFIER_nondet_int.return>>>}|))
(define-fun .def_63 () Bool (and .def_61 .def_62))
(define-fun .def_65 () Bool (and .def_63 .def_64))
(define-fun .def_67 () Bool (and .def_65 .def_66))
(define-fun .def_69 () Bool (and .def_67 .def_68))
(define-fun .def_71 () Bool (and .def_69 .def_70))
(define-fun .def_73 () Bool (and .def_71 .def_72))
(define-fun .def_77 () Bool (and .def_73 .def_76))
(define-fun .def_116 () Bool (or .def_77 .def_115))
(define-fun .def_161 () Bool (or .def_116 .def_160))
(define-fun .def_191 () Bool (or .def_161 .def_190))
(define-fun .def_233 () Bool (or .def_191 .def_232))
(define-fun .def_254 () Bool (or .def_233 .def_253))
(define-fun .def_274 () Bool (or .def_254 .def_273))
(define-fun .def_329 () Bool (or .def_274 .def_328))
(define-fun .def_347 () Bool (! (or .def_329 .def_346) :trans true))
(define-fun .def_234 () Bool (= .def_44 162))
(define-fun .def_162 () Bool (= .def_44 206))
(define-fun .def_348 () Bool (or .def_162 .def_234))
(define-fun .def_275 () Bool (= .def_44 126))
(define-fun .def_349 () Bool (or .def_275 .def_348))
(define-fun .def_350 () Bool (! (not .def_349) :invar-property 0 :invar-property-name ||))
(assert true)
